FILENAME:   /home/mcs001/s132664/testsets/IP/miplib2017/chromaticindex32-8.mps.gz
SETTINGS:   settings_final_nopeek_norelabel_extend_norestarts
TIMELIMIT:  7200
OUTPUTNAME: final_miplib_symretope_if_extended_generating_set_cpx_v802__settings_final_nopeek_norelabel_extend_norestarts__0__
BINNAME:    bin/sbcs.linux.x86_64.gnu.opt.cpx
BASENAME:   chromaticindex32-8.mps.gz
SEED:       0
@01 /home/mcs001/s132664/testsets/IP/miplib2017/chromaticindex32-8.mps.gz ===========
@02 chromaticindex32-8.mps.gz
@03 1686649289
SCIP version 8.0.2 [precision: 8 byte] [memory: block] [mode: optimized] [LP solver: CPLEX 20.1.0.0] [GitHash: 5f0473c]
Copyright (C) 2002-2022 Konrad-Zuse-Zentrum fuer Informationstechnik Berlin (ZIB)

Symretope propagation methods - (c) Jasper van Doornmalen, Christopher Hojny.
[GitHash: 2fd0484]

reading parameter file <../settings/settings_final_nopeek_norelabel_extend_norestarts.set> ...

Changed settings:
limits/time = 7200
limits/restarts = 0
misc/usesymmetry = 1
constraints/orbisack/sepafreq = -1
constraints/symresack/sepafreq = -1
propagating/symmetry/addsymresacks = TRUE
propagating/symmetry/detectsubgroups = FALSE
propagating/symmetry/relabelsymretopes = 0
propagating/symmetry/extendgenerators = TRUE
propagating/symmetry/ofsymcomptiming = 0
constraints/symretope/sepafreq = -1
constraints/symretope/peek = FALSE


solving problem ...

original problem has 2304 variables (2304 bin, 0 int, 0 impl, 0 cont) and 2111 constraints
presolving:
(round 1, exhaustive) 0 del vars, 0 del conss, 0 add conss, 0 chg bounds, 0 chg sides, 0 chg coeffs, 2111 upgd conss, 0 impls, 2111 clqs
   (0.0s) probing: 51/2304 (2.2%) - 0 fixings, 0 aggregations, 0 implications, 0 bound changes
   (0.0s) probing aborted: 50/50 successive totally useless probings
   (0.1s) symmetry computation started: requiring (bin +, int +, cont +), (fixed: bin -, int -, cont -)
   (0.1s) symmetry computation finished: 4 generators found (max: 1500, log10 of symmetry group size: 1.7)
(round 2, exhaustive) 0 del vars, 0 del conss, 10 add conss, 0 chg bounds, 0 chg sides, 0 chg coeffs, 2111 upgd conss, 0 impls, 2111 clqs
presolving (3 rounds: 3 fast, 3 medium, 3 exhaustive):
 0 deleted vars, 0 deleted constraints, 10 added constraints, 0 tightened bounds, 0 added holes, 0 changed sides, 0 changed coefficients
 0 implications, 2111 cliques
presolved problem has 2304 variables (2304 bin, 0 int, 0 impl, 0 cont) and 2121 constraints
   2111 constraints of type <setppc>
      8 constraints of type <orbisack>
      2 constraints of type <symretope>
transformed objective value is always integral (scale: 1)
Presolving Time: 0.06

 time | node  | left  |LP iter|LP it/n|mem/heur|mdpt |vars |cons |rows |cuts |sepa|confs|strbr|  dualbound   | primalbound  |  gap   | compl. 
p 0.1s|     1 |     0 |     0 |     - | vbounds|   0 |2304 |2129 |2123 |   0 |  0 |   8 |   0 | 0.000000e+00 | 4.000000e+00 |    Inf | unknown
  0.2s|     1 |     0 |  2267 |     - |    26M |   0 |2304 |2129 |2123 |   0 |  0 |   8 |   0 | 3.000000e+00 | 4.000000e+00 |  33.33%| unknown
  0.5s|     1 |     0 |  2498 |     - |    30M |   0 |2304 |2305 |2125 |   2 |  1 |   9 |   0 | 3.000000e+00 | 4.000000e+00 |  33.33%| unknown
  0.6s|     1 |     0 |  2753 |     - |    32M |   0 |2304 |2306 |2127 |   4 |  2 |  10 |   0 | 3.000000e+00 | 4.000000e+00 |  33.33%| unknown
  0.8s|     1 |     0 |  3077 |     - |    35M |   0 |2304 |2307 |2128 |   5 |  3 |  11 |   0 | 3.000000e+00 | 4.000000e+00 |  33.33%| unknown
  0.8s|     1 |     0 |  3296 |     - |    36M |   0 |2304 |2308 |2131 |   8 |  4 |  12 |   0 | 3.000000e+00 | 4.000000e+00 |  33.33%| unknown
  0.9s|     1 |     0 |  3517 |     - |    38M |   0 |2304 |2310 |2134 |  11 |  5 |  14 |   0 | 3.000000e+00 | 4.000000e+00 |  33.33%| unknown
  1.0s|     1 |     0 |  3822 |     - |    42M |   0 |2304 |2311 |2138 |  15 |  6 |  15 |   0 | 3.000000e+00 | 4.000000e+00 |  33.33%| unknown
  1.1s|     1 |     0 |  4219 |     - |    43M |   0 |2304 |2312 |2142 |  19 |  7 |  16 |   0 | 3.000000e+00 | 4.000000e+00 |  33.33%| unknown
  1.2s|     1 |     0 |  4720 |     - |    44M |   0 |2304 |2312 |2145 |  22 |  8 |  17 |   0 | 3.000000e+00 | 4.000000e+00 |  33.33%| unknown
  1.3s|     1 |     0 |  4986 |     - |    45M |   0 |2304 |2313 |2147 |  24 |  9 |  18 |   0 | 3.000000e+00 | 4.000000e+00 |  33.33%| unknown
  1.4s|     1 |     0 |  5138 |     - |    45M |   0 |2304 |2314 |2139 |  27 | 10 |  19 |   0 | 3.000000e+00 | 4.000000e+00 |  33.33%| unknown
  1.4s|     1 |     0 |  5440 |     - |    45M |   0 |2304 |2315 |2141 |  29 | 11 |  20 |   0 | 3.000000e+00 | 4.000000e+00 |  33.33%| unknown
  1.5s|     1 |     0 |  5675 |     - |    46M |   0 |2304 |2316 |2145 |  33 | 12 |  21 |   0 | 3.000000e+00 | 4.000000e+00 |  33.33%| unknown
  1.6s|     1 |     0 |  6007 |     - |    46M |   0 |2304 |2317 |2148 |  36 | 13 |  22 |   0 | 3.000000e+00 | 4.000000e+00 |  33.33%| unknown
 time | node  | left  |LP iter|LP it/n|mem/heur|mdpt |vars |cons |rows |cuts |sepa|confs|strbr|  dualbound   | primalbound  |  gap   | compl. 
  2.2s|     1 |     2 |  8100 |     - |    46M |   0 |2304 |2322 |2148 |  36 | 13 |  27 |  12 | 3.000000e+00 | 4.000000e+00 |  33.33%| unknown

SCIP Status        : problem is solved [optimal solution found]
Solving Time (sec) : 2.86
Solving Nodes      : 42
Primal Bound       : +4.00000000000000e+00 (1 solutions)
Dual Bound         : +4.00000000000000e+00
Gap                : 0.00 %
SCIP Status        : problem is solved [optimal solution found]
Total Time         :       2.87
  solving          :       2.86
  presolving       :       0.06 (included in solving)
  reading          :       0.01
  copying          :       0.04 (5 #copies) (minimal 0.01, maximal 0.01, average 0.01)
Original Problem   :
  Problem name     : chromaticindex32-8
  Variables        : 2304 (2304 binary, 0 integer, 0 implicit integer, 0 continuous)
  Constraints      : 2111 initial, 2111 maximal
  Objective        : minimize, 4 non-zeros (abs.min = 1, abs.max = 1)
Presolved Problem  :
  Problem name     : t_chromaticindex32-8
  Variables        : 2304 (2304 binary, 0 integer, 0 implicit integer, 0 continuous)
  Constraints      : 2121 initial, 2374 maximal
  Objective        : minimize, 4 non-zeros (abs.min = 1, abs.max = 1)
  Nonzeros         : 21240 constraint, 8435 clique table
Presolvers         :   ExecTime  SetupTime  Calls  FixedVars   AggrVars   ChgTypes  ChgBounds   AddHoles    DelCons    AddCons   ChgSides   ChgCoefs
  boundshift       :       0.00       0.00      0          0          0          0          0          0          0          0          0          0
  convertinttobin  :       0.00       0.00      0          0          0          0          0          0          0          0          0          0
  domcol           :       0.00       0.00      2          0          0          0          0          0          0          0          0          0
  dualagg          :       0.00       0.00      0          0          0          0          0          0          0          0          0          0
  dualcomp         :       0.00       0.00      0          0          0          0          0          0          0          0          0          0
  dualinfer        :       0.00       0.00      0          0          0          0          0          0          0          0          0          0
  dualsparsify     :       0.00       0.00      1          0          0          0          0          0          0          0          0          0
  gateextraction   :       0.00       0.00      0          0          0          0          0          0          0          0          0          0
  implics          :       0.00       0.00      3          0          0          0          0          0          0          0          0          0
  inttobinary      :       0.00       0.00      0          0          0          0          0          0          0          0          0          0
  qpkktref         :       0.00       0.00      0          0          0          0          0          0          0          0          0          0
  redvub           :       0.00       0.00      0          0          0          0          0          0          0          0          0          0
  sparsify         :       0.00       0.00      1          0          0          0          0          0          0          0          0          0
  stuffing         :       0.00       0.00      0          0          0          0          0          0          0          0          0          0
  trivial          :       0.00       0.00      3          0          0          0          0          0          0          0          0          0
  tworowbnd        :       0.00       0.00      0          0          0          0          0          0          0          0          0          0
  dualfix          :       0.00       0.00      3          0          0          0          0          0          0          0          0          0
  genvbounds       :       0.00       0.00      0          0          0          0          0          0          0          0          0          0
  probing          :       0.01       0.00      1          0          0          0          0          0          0          0          0          0
  pseudoobj        :       0.00       0.00      0          0          0          0          0          0          0          0          0          0
  symmetry         :       0.02       0.00      1          0          0          0          0          0          0         10          0          0
  vbounds          :       0.00       0.00      1          0          0          0          0          0          0          0          0          0
  knapsack         :       0.00       0.00      0          0          0          0          0          0          0          0          0          0
  setppc           :       0.01       0.00      6          0          0          0          0          0          0          0          0          0
  linear           :       0.01       0.00      2          0          0          0          0          0          0          0          0          0
  orbisack         :       0.00       0.00      1          0          0          0          0          0          0          0          0          0
  symretope        :       0.00       0.00      1          0          0          0          0          0          0          0          0          0
  logicor          :       0.00       0.00      0          0          0          0          0          0          0          0          0          0
  benders          :       0.00       0.00      0          0          0          0          0          0          0          0          0          0
  components       :       0.00       0.00      1          0          0          0          0          0          0          0          0          0
  root node        :          -          -      -        610          -          -        610          -          -          -          -          -
Constraints        :     Number  MaxNumber  #Separate #Propagate    #EnfoLP    #EnfoRelax  #EnfoPS    #Check   #ResProp    Cutoffs    DomReds       Cuts    Applied      Conss   Children
  benderslp        :          0          0          0          0         21          0          0          9          0          0          0          0          0          0          0
  integral         :          0          0          0          0         21          0          0          9          0          0          0          0          0          0         42
  knapsack         :          0+         2          0        143          0          0          0          0          3          1          7          0          0          0          0
  setppc           :       2111+      2114         13       3357          0          0          0          4        655         44       1567          1          0          0          0
  linear           :          0+       177         13       1455          0          0          0          0          9          2          6          2          2          0          0
  orbisack         :          8          8          0         43          0          0          0          1         26          1         19          0          0          0          0
  symretope        :          2          2          0        102          0          0          0          1          0          1          0          0          0          0          0
  logicor          :          0+        73         13        220          0          0          0          0         12          1         19          1          1          0          0
  benders          :          0          0          0          0          0          0          0          2          0          0          0          0          0          0          0
  countsols        :          0          0          0          0          0          0          0          2          0          0          0          0          0          0          0
  components       :          0          0          0          0          0          0          0          0          0          0          0          0          0          0          0
Constraint Timings :  TotalTime  SetupTime   Separate  Propagate     EnfoLP     EnfoPS     EnfoRelax   Check    ResProp    SB-Prop
  benderslp        :       0.00       0.00       0.00       0.00       0.00       0.00       0.00       0.00       0.00       0.00
  integral         :       0.40       0.00       0.00       0.00       0.40       0.00       0.00       0.00       0.00       0.00
  knapsack         :       0.00       0.00       0.00       0.00       0.00       0.00       0.00       0.00       0.00       0.00
  setppc           :       0.04       0.00       0.00       0.03       0.00       0.00       0.00       0.00       0.00       0.01
  linear           :       0.00       0.00       0.00       0.00       0.00       0.00       0.00       0.00       0.00       0.00
  orbisack         :       0.00       0.00       0.00       0.00       0.00       0.00       0.00       0.00       0.00       0.00
  symretope        :       0.00       0.00       0.00       0.00       0.00       0.00       0.00       0.00       0.00       0.00
  logicor          :       0.00       0.00       0.00       0.00       0.00       0.00       0.00       0.00       0.00       0.00
  benders          :       0.00       0.00       0.00       0.00       0.00       0.00       0.00       0.00       0.00       0.00
  countsols        :       0.00       0.00       0.00       0.00       0.00       0.00       0.00       0.00       0.00       0.00
  components       :       0.00       0.00       0.00       0.00       0.00       0.00       0.00       0.00       0.00       0.00
Propagators        : #Propagate   #ResProp    Cutoffs    DomReds
  dualfix          :          2          0          0          0
  genvbounds       :          0          0          0          0
  nlobbt           :          0          0          0          0
  obbt             :          0          0          0          0
  probing          :          0          0          0          0
  pseudoobj        :        209          0          0          2
  redcost          :         15          0          0          0
  rootredcost      :          0          0          0          0
  symmetry         :          0          0          0          0
  vbounds          :       1326          0          0          0
Propagator Timings :  TotalTime  SetupTime   Presolve  Propagate    ResProp    SB-Prop
  dualfix          :       0.00       0.00       0.00       0.00       0.00       0.00
  genvbounds       :       0.00       0.00       0.00       0.00       0.00       0.00
  nlobbt           :       0.00       0.00       0.00       0.00       0.00       0.00
  obbt             :       0.00       0.00       0.00       0.00       0.00       0.00
  probing          :       0.01       0.00       0.01       0.00       0.00       0.00
  pseudoobj        :       0.00       0.00       0.00       0.00       0.00       0.00
  redcost          :       0.00       0.00       0.00       0.00       0.00       0.00
  rootredcost      :       0.00       0.00       0.00       0.00       0.00       0.00
  symmetry         :       0.02       0.00       0.02       0.00       0.00       0.00
  vbounds          :       0.00       0.00       0.00       0.00       0.00       0.00
Orbital fixing     :
  vars fixed to 0  :          0
  vars fixed to 1  :          0
Conflict Analysis  :       Time      Calls    Success    DomReds  Conflicts   Literals    Reconvs ReconvLits   Dualrays   Nonzeros   LP Iters   (pool size: [10000,10000])
  propagation      :       0.00         48         41          -         77        6.9          1        9.0          -          -          -
  infeasible LP    :       0.00          2          2          -          4        6.0          0        0.0          2        9.0          0
  bound exceed. LP :       0.00          3          3          -          5        5.8          0        0.0          3       10.7          0
  strong branching :       0.00          0          0          -          0        0.0          0        0.0          -          -          0
  pseudo solution  :       0.00          0          0          -          0        0.0          0        0.0          -          -          -
  applied globally :       0.00          -          -          0         79        6.5          -          -          5          -          -
  applied locally  :          -          -          -          0          0        0.0          -          -          0          -          -
Separators         :   ExecTime  SetupTime      Calls  RootCalls    Cutoffs    DomReds  FoundCuts ViaPoolAdd  DirectAdd    Applied ViaPoolApp  DirectApp      Conss
  cut pool         :       0.02          -         25         25          -          -       2032       2340          -          -          -          -          -    (maximal pool size:       2032)
  aggregation      :       0.02       0.00         13         13          0          0          0          0          0          0          0          0          0
  > cmir           :          -          -          -          -          -          -          -          0          0          0          0          0          -
  > flowcover      :          -          -          -          -          -          -          -          0          0          0          0          0          -
  > knapsackcover  :          -          -          -          -          -          -          -          0          0          0          0          0          -
  cgmip            :       0.00       0.00          0          0          0          0          0          0          0          0          0          0          0
  clique           :       0.18       0.00         13         13          0          0          0          0          0          0          0          0          0
  closecuts        :       0.00       0.00          0          0          0          0          0          0          0          0          0          0          0
  convexproj       :       0.00       0.00          0          0          0          0          0          0          0          0          0          0          0
  disjunctive      :       0.00       0.00          0          0          0          0          0          0          0          0          0          0          0
  eccuts           :       0.00       0.00          0          0          0          0          0          0          0          0          0          0          0
  gauge            :       0.00       0.00          0          0          0          0          0          0          0          0          0          0          0
  gomory           :       0.32       0.00         10         10          0          0       2005       2292          0         10         10          0          0
  > gomorymi       :          -          -          -          -          -          -          -        785          0          1          1          0          -
  > strongcg       :          -          -          -          -          -          -          -       1507          0          9          9          0          -
  impliedbounds    :       0.00       0.00         13         13          0          0          1          1          0          1          1          0          0
  interminor       :       0.00       0.00          0          0          0          0          0          0          0          0          0          0          0
  intobj           :       0.00       0.00          0          0          0          0          0          0          0          0          0          0          0
  mcf              :       0.00       0.00          1          1          0          0          0          0          0          0          0          0          0
  minor            :       0.00       0.00          0          0          0          0          0          0          0          0          0          0          0
  mixing           :       0.00       0.00          0          0          0          0          0          0          0          0          0          0          0
  oddcycle         :       0.00       0.00          0          0          0          0          0          0          0          0          0          0          0
  rapidlearning    :       0.29       0.00          4          1          0         93          0          0          0          0          0          0        177
  rlt              :       0.00       0.00         10         10          0          0          0          0          0          0          0          0          0
  zerohalf         :       0.20       0.00         13         13          0          0         26         47          0         22         22          0          0
Cutselectors       :   ExecTime  SetupTime      Calls  RootCalls   Selected     Forced   Filtered  RootSelec   RootForc   RootFilt 
  hybrid           :       0.00       0.00         13         13         36          0       2308         36          0       2308
Pricers            :   ExecTime  SetupTime      Calls       Vars
  problem variables:       0.00          -          0          0
Branching Rules    :   ExecTime  SetupTime   BranchLP  BranchExt   BranchPS    Cutoffs    DomReds       Cuts      Conss   Children
  allfullstrong    :       0.00       0.00          0          0          0          0          0          0          0          0
  cloud            :       0.00       0.00          0          0          0          0          0          0          0          0
  distribution     :       0.00       0.00          0          0          0          0          0          0          0          0
  fullstrong       :       0.00       0.00          0          0          0          0          0          0          0          0
  inference        :       0.00       0.00          0          0          0          0          0          0          0          0
  leastinf         :       0.00       0.00          0          0          0          0          0          0          0          0
  lookahead        :       0.00       0.00          0          0          0          0          0          0          0          0
  mostinf          :       0.00       0.00          0          0          0          0          0          0          0          0
  multaggr         :       0.00       0.00          0          0          0          0          0          0          0          0
  nodereopt        :       0.00       0.00          0          0          0          0          0          0          0          0
  pscost           :       0.00       0.00          0          0          0          0          0          0          0          0
  random           :       0.00       0.00          0          0          0          0          0          0          0          0
  relpscost        :       0.40       0.00         21          0          0          0          0          0          0         42
  vanillafullstrong:       0.00       0.00          0          0          0          0          0          0          0          0
Primal Heuristics  :   ExecTime  SetupTime      Calls      Found       Best
  LP solutions     :       0.00          -          -          0          0
  relax solutions  :       0.00          -          -          0          0
  pseudo solutions :       0.00          -          -          0          0
  strong branching :       0.00          -          -          0          0
  actconsdiving    :       0.00       0.00          0          0          0
  adaptivediving   :       0.00       0.00          2          0          0
  alns             :       0.02       0.00          1          0          0
  bound            :       0.00       0.00          0          0          0
  clique           :       0.01       0.00          1          0          0
  coefdiving       :       0.00       0.00          0          0          0
  completesol      :       0.00       0.00          0          0          0
  conflictdiving   :       0.04       0.00          1          0          0
  crossover        :       0.00       0.00          0          0          0
  dins             :       0.00       0.00          0          0          0
  distributiondivin:       0.02       0.00          2          0          0
  dps              :       0.00       0.00          0          0          0
  dualval          :       0.00       0.00          0          0          0
  farkasdiving     :       0.00       0.00          0          0          0
  feaspump         :       0.13       0.00          1          0          0
  fixandinfer      :       0.00       0.00          0          0          0
  fracdiving       :       0.00       0.00          2          0          0
  gins             :       0.00       0.00          0          0          0
  guideddiving     :       0.00       0.00          0          0          0
  indicator        :       0.00       0.00          0          0          0
  intdiving        :       0.00       0.00          0          0          0
  intshifting      :       0.00       0.00          0          0          0
  linesearchdiving :       0.00       0.00          0          0          0
  localbranching   :       0.00       0.00          0          0          0
  locks            :       0.00       0.00          1          0          0
  lpface           :       0.00       0.00          0          0          0
  mpec             :       0.00       0.00          0          0          0
  multistart       :       0.00       0.00          0          0          0
  mutation         :       0.00       0.00          0          0          0
  nlpdiving        :       0.00       0.00          0          0          0
  objpscostdiving  :       0.15       0.00          1          0          0
  octane           :       0.00       0.00          0          0          0
  ofins            :       0.00       0.00          0          0          0
  oneopt           :       0.00       0.00          1          0          0
  padm             :       0.00       0.00          0          0          0
  proximity        :       0.00       0.00          0          0          0
  pscostdiving     :       0.02       0.00          1          0          0
  randrounding     :       0.05       0.00         14          0          0
  rens             :       0.00       0.00          0          0          0
  reoptsols        :       0.00       0.00          0          0          0
  repair           :       0.00       0.00          0          0          0
  rins             :       0.00       0.00          0          0          0
  rootsoldiving    :       0.11       0.00          1          0          0
  rounding         :       0.01       0.00         37          0          0
  shiftandpropagate:       0.00       0.00          0          0          0
  shifting         :       0.01       0.00         14          0          0
  simplerounding   :       0.00       0.00         37          0          0
  subnlp           :       0.00       0.00          0          0          0
  trivial          :       0.00       0.00          2          0          0
  trivialnegation  :       0.00       0.00          0          0          0
  trustregion      :       0.00       0.00          0          0          0
  trysol           :       0.00       0.00          0          0          0
  twoopt           :       0.00       0.00          0          0          0
  undercover       :       0.00       0.00          0          0          0
  vbounds          :       0.02       0.00          1          1          1
  veclendiving     :       0.00       0.00          1          0          0
  zeroobj          :       0.00       0.00          0          0          0
  zirounding       :       0.00       0.00         21          0          0
  other solutions  :          -          -          -          0          -
LP                 :       Time      Calls Iterations  Iter/call   Iter/sec  Time-0-It Calls-0-It    ItLimit
  primal LP        :       0.04          2          0       0.00       0.00       0.04          2
  dual LP          :       0.69         50       7344     146.88   10706.29       0.00          0
  lex dual LP      :       0.00          0          0       0.00          -
  barrier LP       :       0.00          0          0       0.00          -       0.00          0
  resolve instable :       0.00          0          0       0.00          -
  diving/probing LP:       0.45         50       4661      93.22   10362.43
  strong branching :       0.36         12       4737     394.75   13080.36          -          -          0
    (at root node) :          -         12       4737     394.75          -
  conflict analysis:       0.00          0          0       0.00          -
B&B Tree           :
  number of runs   :          1
  nodes            :         42 (21 internal, 21 leaves)
  feasible leaves  :          0
  infeas. leaves   :          9
  objective leaves :         12
  nodes (total)    :         42 (21 internal, 21 leaves)
  nodes left       :          0
  max depth        :          5
  max depth (total):          5
  backtracks       :         18 (42.9%)
  early backtracks :          0 (0.0%)
  nodes exc. ref.  :          0 (0.0%)
  delayed cutoffs  :          1
  repropagations   :          7 (23 domain reductions, 1 cutoffs)
  avg switch length:       3.00
  switching time   :       0.02
Root Node          :
  First LP value   : +3.00000000000000e+00
  First LP Iters   :       2267 (15528.35 Iter/sec)
  First LP Time    :       0.15
  Final Dual Bound : +3.00000000000000e+00
  Final Root Iters :       6007
  Root LP Estimate : +3.02959645061739e+00
Solution           :
  Solutions found  :          1 (1 improvements)
  First Solution   : +4.00000000000000e+00   (in run 1, after 1 nodes, 0.10 seconds, depth 489, found by <vbounds>)
  Gap First Sol.   :   infinite
  Gap Last Sol.    :   infinite
  Primal Bound     : +4.00000000000000e+00   (in run 1, after 1 nodes, 0.10 seconds, depth 489, found by <vbounds>)
  Dual Bound       : +4.00000000000000e+00
  Gap              :       0.00 %
Integrals          :      Total       Avg%
  primal-dual      :      89.97      31.49
  primal-ref       :          -          - (not evaluated)
  dual-ref         :          -          - (not evaluated)
written solution information to file <results/final_miplib_symretope_if_extended_generating_set_cpx_v802__settings_final_nopeek_norelabel_extend_norestarts__0__chromaticindex32-8.mps.gz.sol>
@04 1686649292
